(set-logic ALL)
(set-option :produce-models true)
(declare-sort BoundSet 0)
(declare-sort UnboundSet 0)
(declare-fun HasTooLittleData (BoundSet) Bool)
(declare-fun IsUnrepresentative (BoundSet) Bool)
(declare-fun ( (Bool) Bool)
(declare-fun CanMakeClaim (BoundSet) Bool)
(declare-fun CanNotMakeClaim (BoundSet) Bool)
(assert (not (=> (exists ((b BoundSet)) (exists ((a BoundSet)) (and (exists ((c BoundSet)) (( (and (not (HasTooLittleData b)) (not (IsUnrepresentative c))))) (CanMakeClaim a)))) (exists ((d BoundSet)) (CanNotMakeClaim d)))))
(check-sat)
(get-model)